NAME: instance_1937
TYPE: TSP
DIMENSION: 20
EDGE_WEIGHT_TYPE: EUC_2D
NODE_COORD_SECTION
0 9.23 6.41
1 46.69 7.44
2 16.03 72.41
3 25.33 26.98
4 42.53 63.68
5 38.71 38.62
6 98.03 62.24
7 84.27 82.03
8 43.49 93.58
9 61.19 71.75
10 80.80 16.99
11 59.69 22.17
12 2.03 56.27
13 78.03 70.12
14 28.07 19.81
15 47.90 53.34
16 39.11 59.65
17 19.87 28.59
18 9.61 52.70
19 88.19 79.92
EOF
